Instance: Data/Instances_txt/inst_20_30_4.txt
SetUpTime: 1.0108819007873535

Gurobi 10.0.1 (mac64[x86]) logging started Di  1 Aug 16:29:00 2023

Set parameter LogFile to value "Output/MILP_inst_20_30_4_2023-08-01_16-28-50.txt"
Set parameter TimeLimit to value 2700

Gurobi 10.0.1 (mac64[x86]) logging started Di  1 Aug 16:29:00 2023

Set parameter LogFile to value "Output/MILP_inst_20_30_4_2023-08-01_16-28-50.txt"
Gurobi Optimizer version 10.0.1 build v10.0.1rc0 (mac64[x86])

CPU model: Intel(R) Core(TM) i5-1038NG7 CPU @ 2.00GHz
Thread count: 4 physical cores, 8 logical processors, using up to 8 threads

Optimize a model with 41 rows, 2540 columns and 19772 nonzeros
Model fingerprint: 0x2b84d669
Variable types: 0 continuous, 2540 integer (0 binary)
Coefficient statistics:
  Matrix range     [1e+00, 1e+00]
  Objective range  [8e+00, 2e+03]
  Bounds range     [1e+00, 1e+00]
  RHS range        [1e+00, 1e+00]
Found heuristic solution: objective 2817.0000000
Presolve removed 0 rows and 91 columns
Presolve time: 0.12s
Presolved: 41 rows, 2449 columns, 18690 nonzeros
Variable types: 0 continuous, 2449 integer (2449 binary)

Root relaxation: objective 1.726000e+03, 124 iterations, 0.01 seconds (0.01 work units)

    Nodes    |    Current Node    |     Objective Bounds      |     Work
 Expl Unexpl |  Obj  Depth IntInf | Incumbent    BestBd   Gap | It/Node Time

*    0     0               0    1726.0000000 1726.00000  0.00%     -    0s

Explored 1 nodes (124 simplex iterations) in 0.13 seconds (0.10 work units)
Thread count was 8 (of 8 available processors)

Solution count 2: 1726 2817 

Optimal solution found (tolerance 1.00e-04)
Best objective 1.726000000000e+03, best bound 1.726000000000e+03, gap 0.0000%

User-callback calls 221, time in user-callback 0.00 sec

=========================

OUTPUT STATISTICS
Relaxed: false
Time since start: 1.2149360179901123
SetUpTime: 1.0108819007873535
Objective value: 1726.0
Number of variables: 2540
Solving time: 0.20167899131774902
